2,6
4,6
6,8
9,6
12,5
15,3
18,1
21,0
23,9
26,7
29,6
32,5
35,4
38,3
41,3
44,2
47,2
50,2
53,1
56,1
59,1
62,0
65,0
68,0
70,9
73,9
76,8
79,8
82,7
85,7
88,7
91,6
92,7
92,6
92,6
92,6
92,6
92,6
92,6
92,6
92,6
92,6
92,6
92,6
92,6
92,6
92,6
92,6
92,6
92,6
92,6
92,6
92,6
92,6
92,6
92,6
92,6
92,6
92,6
92,6
92,6
92,6
92,6
92,6
92,6
92,6
92,6
92,6
92,6
92,6
92,6
0,0
0,0
0,0
0,0
